length = 10;
width = 6;

wound =  
[| false, false, false, false, false, false
 | false, false, false, true,  false, false
 | false, false, false, true,  false, false
 | true,  false, false, false, false, false
 | false, true,  true,  true,  false, false
 | false, true,  true,  true,  false, false
 | false, true,  true,  true,  false, false
 | false, false, false, false, true,  false
 | false, false, false, false, false, false
 | false, false, false, false, true,  false
|];

ntypes = 6;
number = [2,2,2,2,2,2];
dim = [| 1,1
       | 2,1
       | 3,1
       | 2,2
       | 3,3
       | 5,1 |];
price = [ 12, 5, 6, 5, 17, 12 ];